B=5;
D=1;
P=9;
S=9;
demands = [4 2 3 5 1 5 1 4 1 ];
capacities = [4 9 2 3 2 10 2 2 10 ];
dist_start = [2 6 3 6 9 6 7 4 3 ];
dist = [6 4 6 4 3 7 1 3 4 5 2 1 1 3 10 2 1 9 8 6 6 1 3 10 7 2 7 5 7 10 6 3 5 3 8 7 10 9 10 3 5 3 5 8 5 4 9 7 4 9 2 9 9 7 10 5 10 7 2 6 6 7 10 2 9 8 10 8 8 1 3 4 3 9 1 7 3 10 6 8 8 ];
